36 36
23
3 3 28 0
3 4 28 32
3 5 18 10
3 6 18 15
3 7 18 21
3 8 18 28
3 9 0 16
3 10 18 0
3 11 0 25
3 12 25 24
3 14 33 18
3 15 28 3
3 16 0 0
3 24 25 0
3 36 3 0
4 3 21 11
4 11 21 0
4 22 21 14
5 3 31 0
5 4 31 32
5 14 28 18
5 15 31 3
12 36 6 0
